Maximize
  0 x0 + 40 x1 + 0 x2 + 26 x3 + 0 x4 + 24 x5 - 2 x6 + 0 x7 - x8 + 0 x9
   + 38 x10 + 0 x11 - 35 x12 + 0 x13 + 4 x14 + 0 x15 + 6 x16 + 0 x17
   + 0 x18 + 0 x19 + 44 x20 + 37 x21 + 0 x22 + 0 x23 + 22 x24 - 39 x25
   + 0 x26 + 0 x27 + 0 x28 + 0 x29 + 0 x30 + 4 x31 - 21 x32 - 27 x33
   + 0 x34 + 0 x35 + 0 x36 - 45 x37 + 0 x38 + 0 x39 + 0 x40 + 0 x41 + 0 x42
   + 0 x43 + 0 x44 + 27 x45 + 0 x46 + 0 x47 + 0 x48 + 0 x49 + 0 x50 + 0 x51
   + 6 x52 + 0 x53 + 0 x54 + 0 x55 + 0 x56 + 5 x57 + 0 x58 + 0 x59 + 0 x60
   + 0 x61 + 0 x62 + 0 x63 + 0 x64 + 0 x65 + 16 x66 + 0 x67 + 0 x68 + 0 x69
   + 0 x70 + 31 x71 + 0 x72 + 0 x73 + 0 x74 - 2 x75 + 0 x76 + 0 x77 + 0 x78
   + 0 x79 + 0 x80 + 0 x81 + 0 x82 + 0 x83 - 20 x84 + 0 x85 + 0 x86 + 0 x87
   + 0 x88 + 0 x89 + 0 x90 + 4 x91 + 0 x92 + 0 x93 - 35 x94 + 0 x95 + 0 x96
   + 0 x97 + 34 x98 + 0 x99 + [ 96 x0 * x2 + 36 x0 * x7 - 86 x0 * x11
   - 94 x0 * x12 + 68 x0 * x13 - 30 x0 * x14 - 2 x0 * x15 - 14 x0 * x21
   + 26 x0 * x27 - 98 x0 * x29 + 78 x0 * x31 + 72 x0 * x32 - 88 x0 * x37
   - 88 x0 * x42 + 50 x0 * x46 + 40 x0 * x55 - 82 x0 * x71 + 72 x0 * x73
   + 84 x0 * x77 + 14 x0 * x85 - 41 x1 ^2 - 46 x1 * x2 + 24 x1 * x8
   + 38 x1 * x9 - 78 x1 * x10 - 42 x1 * x19 + 48 x1 * x21 + 36 x1 * x22
   + 36 x1 * x27 - 44 x1 * x33 - 26 x1 * x36 + 78 x1 * x41 - 56 x1 * x43
   + 42 x1 * x46 - 4 x1 * x53 - 42 x1 * x65 - 34 x1 * x79 + 44 x1 * x84
   + 54 x1 * x90 + 26 x1 * x92 + 64 x1 * x97 - 32 x1 * x98 + 6 x1 * x99
   - 46 x2 * x3 - 98 x2 * x4 + 70 x2 * x6 + 24 x2 * x7 + 80 x2 * x14
   - 10 x2 * x15 + 2 x2 * x19 - 70 x2 * x22 + 48 x2 * x25 - 82 x2 * x37
   + 86 x2 * x38 - 34 x2 * x53 + 78 x2 * x64 + 6 x2 * x67 - 28 x2 * x69
   + 28 x2 * x70 + 66 x2 * x72 + 8 x2 * x73 - 44 x2 * x77 + 86 x2 * x85
   + 44 x2 * x86 - 48 x2 * x91 + 22 x2 * x92 + 26 x2 * x96 - 38 x3 * x9
   + 82 x3 * x10 + 32 x3 * x11 + 22 x3 * x19 + 48 x3 * x20 - 24 x3 * x22
   - 60 x3 * x24 - 90 x3 * x27 + 66 x3 * x28 - 78 x3 * x30 + 32 x3 * x37
   + 84 x3 * x42 - 48 x3 * x43 + 8 x3 * x45 + 6 x3 * x46 - 34 x3 * x47
   - 76 x3 * x49 + 82 x3 * x52 + 40 x3 * x53 + 68 x3 * x56 - 2 x3 * x58
   + 28 x3 * x61 + 20 x3 * x73 - 42 x3 * x76 - 14 x3 * x77 - 60 x3 * x78
   - 52 x3 * x94 - 56 x3 * x95 + 78 x3 * x96 - 68 x3 * x99 - 28 x4 * x6
   + 16 x4 * x7 + 30 x4 * x17 + 62 x4 * x22 + 34 x4 * x24 + 86 x4 * x28
   + 90 x4 * x29 + 30 x4 * x31 + 88 x4 * x33 + 80 x4 * x36 + 70 x4 * x37
   - 36 x4 * x38 + 74 x4 * x39 - 62 x4 * x46 + 48 x4 * x49 + 36 x4 * x50
   - 64 x4 * x54 + 46 x4 * x55 - 38 x4 * x56 - 28 x4 * x58 + 28 x4 * x64
   + 8 x4 * x65 - 94 x4 * x69 - 72 x4 * x70 + 38 x4 * x74 - 70 x4 * x75
   + 46 x4 * x80 - 80 x4 * x81 + 40 x4 * x84 + 74 x4 * x88 - 48 x4 * x90
   - 90 x4 * x91 + 64 x4 * x92 + 10 x4 * x98 + 32 x5 * x6 + 54 x5 * x14
   + 12 x5 * x15 - 98 x5 * x20 + 70 x5 * x21 - 46 x5 * x25 + 82 x5 * x29
   - 18 x5 * x36 + 28 x5 * x42 - 88 x5 * x43 + 48 x5 * x45 - 84 x5 * x48
   - 36 x5 * x53 + 50 x5 * x59 + 62 x5 * x62 - 96 x5 * x66 + 40 x5 * x69
   - 24 x5 * x76 + 16 x5 * x77 - 94 x5 * x86 - 46 x5 * x87 - 90 x5 * x88
   - 28 x5 * x91 - 60 x5 * x95 - 68 x6 * x7 - 24 x6 * x18 - 74 x6 * x29
   + 72 x6 * x35 - 60 x6 * x40 + 88 x6 * x41 + 32 x6 * x47 + 4 x6 * x49
   - 82 x6 * x52 + 50 x6 * x56 + 84 x6 * x58 + 88 x6 * x61 - 78 x6 * x65
   + 22 x6 * x70 + 64 x6 * x72 + 36 x6 * x74 + 14 x6 * x79 + 70 x6 * x82
   + 66 x6 * x86 - 10 x6 * x92 - 52 x6 * x97 - 38 x6 * x99 + 60 x7 * x8
   - 36 x7 * x9 + 38 x7 * x13 - 94 x7 * x15 + 56 x7 * x17 - 74 x7 * x19
   + 18 x7 * x23 + 66 x7 * x26 - 84 x7 * x29 - 86 x7 * x33 + 36 x7 * x37
   - 16 x7 * x38 - 96 x7 * x39 - 18 x7 * x40 - 68 x7 * x44 + 44 x7 * x47
   + 66 x7 * x48 - 86 x7 * x49 + 36 x7 * x61 - 92 x7 * x65 + 16 x7 * x66
   + 28 x7 * x67 + 36 x7 * x71 + 10 x7 * x72 - 88 x7 * x78 - 66 x7 * x81
   + 60 x7 * x82 + 80 x7 * x83 - 32 x7 * x91 - 96 x7 * x95 + 76 x7 * x98
   - 11 x8 ^2 + 52 x8 * x11 - 74 x8 * x13 + 68 x8 * x15 + 4 x8 * x16
   + 30 x8 * x18 - 32 x8 * x22 + 38 x8 * x23 + 92 x8 * x25 - 98 x8 * x37
   + 8 x8 * x40 - 6 x8 * x41 - 78 x8 * x42 - 26 x8 * x44 - 66 x8 * x48
   + 96 x8 * x49 + 60 x8 * x52 - 8 x8 * x63 + 10 x8 * x64 + 2 x8 * x65
   - 48 x8 * x72 + 66 x8 * x77 + 10 x8 * x89 + 96 x8 * x90 - 84 x8 * x92
   - 62 x8 * x98 + 72 x9 * x12 - 86 x9 * x23 + 70 x9 * x24 + 30 x9 * x33
   - 80 x9 * x36 + 38 x9 * x41 - 98 x9 * x44 - 78 x9 * x48 - 16 x9 * x53
   + 96 x9 * x60 + 14 x9 * x62 + 30 x9 * x65 + 54 x9 * x68 + 38 x9 * x71
   + 56 x9 * x74 + 8 x9 * x76 + 4 x9 * x77 - 96 x9 * x87 + 68 x9 * x92
   - 24 x9 * x96 + 50 x10 * x11 + 26 x10 * x16 - 14 x10 * x20
   + 56 x10 * x26 + 80 x10 * x27 - 60 x10 * x31 - 60 x10 * x35
   - 96 x10 * x39 + 98 x10 * x40 + 4 x10 * x43 + 56 x10 * x46
   + 12 x10 * x52 + 70 x10 * x53 + 36 x10 * x60 + 96 x10 * x64
   + 80 x10 * x68 + 32 x10 * x71 + 42 x10 * x76 + 38 x10 * x81
   + 94 x10 * x85 - 30 x10 * x90 - 6 x10 * x94 + 8 x10 * x96 + 70 x11 * x22
   + 88 x11 * x23 + 34 x11 * x26 - 76 x11 * x27 - 84 x11 * x28
   - 20 x11 * x32 - 78 x11 * x33 - 2 x11 * x37 - 16 x11 * x38
   - 64 x11 * x39 + 34 x11 * x41 - 4 x11 * x44 + 58 x11 * x46
   - 78 x11 * x47 + 60 x11 * x48 - 84 x11 * x52 + 6 x11 * x53
   - 44 x11 * x56 + 26 x11 * x60 + 86 x11 * x61 - 94 x11 * x63
   - 66 x11 * x64 + 26 x11 * x65 - 80 x11 * x75 - 88 x11 * x82
   - 62 x11 * x86 + 88 x11 * x89 + 64 x11 * x93 - 82 x11 * x94
   - 8 x11 * x95 - 90 x12 * x16 + 52 x12 * x18 + 10 x12 * x28
   + 22 x12 * x31 + 94 x12 * x37 + 98 x12 * x39 - 48 x12 * x45
   + 56 x12 * x47 + 52 x12 * x52 - 92 x12 * x54 + 16 x12 * x55
   - 34 x12 * x56 - 84 x12 * x60 - 88 x12 * x72 + 88 x12 * x76
   + 82 x12 * x77 - 34 x12 * x79 - 36 x12 * x91 + 20 x12 * x97
   - 4 x12 * x98 + 66 x12 * x99 - 2 x13 * x15 - 76 x13 * x25 - 10 x13 * x26
   + 30 x13 * x27 - 38 x13 * x28 + 30 x13 * x45 + 12 x13 * x46
   - 22 x13 * x47 - 56 x13 * x48 + 6 x13 * x50 + 2 x13 * x52 - 18 x13 * x70
   + 28 x13 * x72 - 94 x13 * x79 - 4 x13 * x83 - 90 x13 * x85
   + 82 x13 * x87 - 2 x13 * x90 - 92 x13 * x94 + 40 x13 * x99 - 22 x14 ^2
   + 2 x14 * x15 - 98 x14 * x18 + 2 x14 * x22 - 48 x14 * x25 + 38 x14 * x29
   - 66 x14 * x31 - 34 x14 * x36 - 22 x14 * x39 - 56 x14 * x40
   - 4 x14 * x43 - 26 x14 * x45 + 10 x14 * x48 + 4 x14 * x53 + 48 x14 * x56
   - 66 x14 * x57 - 16 x14 * x61 - 12 x14 * x63 - 68 x14 * x66
   - 28 x14 * x67 + 36 x14 * x69 + 58 x14 * x72 + 88 x14 * x80
   - 64 x14 * x86 + 92 x14 * x89 - 68 x15 * x16 - 62 x15 * x23
   - 32 x15 * x24 - 66 x15 * x30 - 38 x15 * x32 - 40 x15 * x34
   - 28 x15 * x42 - 46 x15 * x49 + 92 x15 * x50 - 44 x15 * x52
   - 80 x15 * x56 + 58 x15 * x61 - 46 x15 * x64 + 56 x15 * x72
   + 54 x15 * x75 + 88 x15 * x79 - 4 x15 * x82 + 78 x15 * x84
   - 78 x15 * x87 - 22 x15 * x89 - 96 x15 * x91 - 78 x15 * x93
   - 64 x16 * x18 - 46 x16 * x19 + 72 x16 * x28 + 70 x16 * x29
   + 54 x16 * x30 - 68 x16 * x33 + 98 x16 * x35 - 24 x16 * x52
   - 2 x16 * x59 + 46 x16 * x70 + 80 x16 * x76 + 46 x16 * x79
   - 92 x16 * x89 + 70 x16 * x98 - 35 x17 ^2 - 16 x17 * x19 + 48 x17 * x22
   + 46 x17 * x32 - 36 x17 * x37 - 6 x17 * x38 - 24 x17 * x46
   + 24 x17 * x48 - 62 x17 * x50 - 40 x17 * x66 - 64 x17 * x67
   + 60 x17 * x85 + 50 x17 * x88 + 38 x17 * x90 + 30 x17 * x92
   + 40 x17 * x99 + 32 x18 * x22 + 20 x18 * x30 - 10 x18 * x32
   - 28 x18 * x34 + 60 x18 * x38 + 12 x18 * x42 - 84 x18 * x45
   + 26 x18 * x48 + 80 x18 * x49 + 60 x18 * x62 + 72 x18 * x63
   + 22 x18 * x68 + 54 x18 * x69 + 34 x18 * x70 + 60 x18 * x72
   + 44 x18 * x76 + 54 x18 * x78 + 8 x18 * x81 + 40 x18 * x83
   + 46 x18 * x89 + 92 x18 * x98 - 12 x19 * x20 - 24 x19 * x21
   + 94 x19 * x23 + 8 x19 * x27 + 46 x19 * x36 + 48 x19 * x43 - 2 x19 * x44
   + 96 x19 * x45 + 30 x19 * x47 + 36 x19 * x50 + 34 x19 * x57
   + 64 x19 * x62 + 72 x19 * x63 + 82 x19 * x75 + 12 x19 * x77
   + 92 x19 * x80 + 74 x19 * x90 + 30 x19 * x93 - 56 x19 * x95 - 6 x20 ^2
   - 12 x20 * x31 - 80 x20 * x39 + 80 x20 * x49 - 22 x20 * x55
   - 26 x20 * x60 + 88 x20 * x69 - 44 x20 * x75 + 68 x20 * x78
   - 58 x20 * x79 - 14 x20 * x81 - 62 x20 * x87 - 50 x20 * x88
   + 52 x20 * x89 + 22 x20 * x90 - 78 x20 * x97 - 28 x20 * x98 + 15 x21 ^2
   - 96 x21 * x23 + 36 x21 * x24 - 90 x21 * x29 - 82 x21 * x31
   - 10 x21 * x33 - 24 x21 * x34 + 28 x21 * x36 - 74 x21 * x38
   - 24 x21 * x46 - 86 x21 * x49 - 28 x21 * x53 + 42 x21 * x58
   - 18 x21 * x59 - 72 x21 * x61 + 94 x21 * x63 + 38 x21 * x65
   - 74 x21 * x76 - 18 x21 * x77 - 40 x21 * x78 + 54 x21 * x79
   - 54 x21 * x81 - 14 x21 * x85 + 90 x21 * x86 - 46 x21 * x94
   - 10 x22 * x23 - 68 x22 * x24 - 20 x22 * x28 + 10 x22 * x31
   - 88 x22 * x33 - 68 x22 * x41 + 2 x22 * x52 + 86 x22 * x56
   + 62 x22 * x58 - 96 x22 * x60 + 34 x22 * x63 + 92 x22 * x68
   + 36 x22 * x69 + 80 x22 * x75 + 30 x22 * x77 - 4 x22 * x78
   + 76 x22 * x85 - 64 x22 * x89 - 88 x22 * x92 + 30 x22 * x98 + 38 x23 ^2
   + 68 x23 * x26 + 72 x23 * x28 + 76 x23 * x29 + 32 x23 * x38
   - 14 x23 * x47 - 98 x23 * x50 - 26 x23 * x52 + 50 x23 * x53
   - 96 x23 * x55 + 68 x23 * x57 - 42 x23 * x59 - 26 x23 * x74
   + 28 x23 * x75 + 46 x23 * x77 + 14 x23 * x78 - 34 x23 * x80
   - 24 x23 * x81 - 28 x23 * x85 - 26 x23 * x87 - 78 x24 * x30
   + 8 x24 * x34 - 64 x24 * x40 + 16 x24 * x50 - 78 x24 * x60 + 8 x24 * x67
   + 22 x24 * x70 + 46 x24 * x72 + 78 x24 * x81 + 88 x24 * x90
   - 68 x24 * x97 - 22 x24 * x99 - 90 x25 * x26 + 96 x25 * x35
   + 56 x25 * x36 + 32 x25 * x41 - 64 x25 * x43 + 68 x25 * x50
   - 42 x25 * x51 - 70 x25 * x53 + 50 x25 * x54 + 40 x25 * x57
   + 72 x25 * x58 - 74 x25 * x59 - 8 x25 * x62 + 16 x25 * x69
   - 86 x25 * x70 - 36 x25 * x71 - 40 x25 * x73 + 64 x25 * x88
   + 66 x25 * x90 + 56 x25 * x91 - 12 x25 * x95 - 24 x25 * x98
   - 84 x26 * x29 + 4 x26 * x33 + 60 x26 * x41 - 72 x26 * x42
   - 78 x26 * x44 + 6 x26 * x45 - 44 x26 * x48 + 94 x26 * x51
   + 94 x26 * x59 + 64 x26 * x68 + 56 x26 * x82 + 94 x26 * x89
   + 70 x26 * x91 + 2 x26 * x92 + 24 x26 * x94 + 90 x26 * x95
   - 76 x26 * x97 - 58 x26 * x99 + 44 x27 * x31 + 74 x27 * x38
   + 22 x27 * x41 - 20 x27 * x47 + 82 x27 * x48 + 60 x27 * x49
   + 8 x27 * x50 + 2 x27 * x51 + 20 x27 * x53 + 78 x27 * x62 - 50 x27 * x65
   + 64 x27 * x66 + 60 x27 * x73 + 82 x27 * x74 - 14 x27 * x75
   + 42 x27 * x78 - 14 x27 * x81 + 56 x27 * x86 - 94 x27 * x96
   - 50 x28 * x32 - 8 x28 * x44 - 10 x28 * x53 - 40 x28 * x54
   + 36 x28 * x59 - 22 x28 * x62 - 18 x28 * x67 + 48 x28 * x70
   - 42 x28 * x72 + 84 x28 * x73 + 2 x28 * x80 - 30 x28 * x81
   + 88 x28 * x84 + 6 x28 * x91 - 90 x28 * x99 - 37 x29 ^2 + 62 x29 * x33
   - 84 x29 * x37 + 58 x29 * x44 - 58 x29 * x47 + 46 x29 * x48
   - 40 x29 * x49 - 24 x29 * x62 - 16 x29 * x63 - 14 x29 * x69
   + 56 x29 * x74 - 78 x29 * x78 + 44 x29 * x83 - 60 x29 * x84
   + 32 x29 * x88 - 4 x29 * x95 + 2 x30 * x36 - 4 x30 * x43 - 8 x30 * x44
   + 86 x30 * x48 - 86 x30 * x52 - 34 x30 * x55 + 88 x30 * x57
   + 52 x30 * x59 - 66 x30 * x67 - 86 x30 * x69 + 52 x30 * x70
   - 42 x30 * x80 + 96 x30 * x84 - 52 x30 * x87 - 14 x30 * x94
   + 16 x30 * x99 + 92 x31 * x32 + 36 x31 * x33 - 94 x31 * x42
   - 74 x31 * x45 + 42 x31 * x48 - 58 x31 * x49 - 86 x31 * x51
   + 26 x31 * x66 - 50 x31 * x67 + 32 x31 * x76 - 28 x31 * x80
   - 60 x31 * x81 + 88 x31 * x83 + 66 x31 * x89 - 74 x32 * x33
   + 2 x32 * x41 - 48 x32 * x49 + 30 x32 * x50 - 96 x32 * x51
   + 82 x32 * x56 + 98 x32 * x61 - 96 x32 * x66 - 20 x32 * x67
   + 18 x32 * x69 - 18 x32 * x70 + 56 x32 * x75 - 80 x32 * x78
   - 40 x32 * x81 + 62 x32 * x84 + 78 x32 * x88 - 96 x32 * x89
   + 88 x32 * x90 + 66 x32 * x94 + 86 x32 * x99 - 62 x33 * x35
   + 56 x33 * x38 - 44 x33 * x40 - 84 x33 * x52 + 20 x33 * x66
   + 48 x33 * x67 - 94 x33 * x71 - 30 x33 * x76 - 86 x33 * x79
   - 10 x33 * x81 - 10 x33 * x86 - 64 x33 * x87 - 4 x33 * x89
   - 10 x33 * x92 + 40 x33 * x93 + 16 x34 * x38 - 30 x34 * x39
   - 80 x34 * x41 + 8 x34 * x43 - 90 x34 * x47 - 92 x34 * x52 + 4 x34 * x55
   + 74 x34 * x63 - 82 x34 * x64 + 16 x34 * x72 + 8 x34 * x73
   + 66 x34 * x78 - 78 x34 * x88 - 12 x34 * x93 + 58 x34 * x96
   - 40 x34 * x97 + 26 x35 * x37 - 32 x35 * x41 - 44 x35 * x43
   - 14 x35 * x50 + 68 x35 * x54 - 58 x35 * x65 - 6 x35 * x66
   - 64 x35 * x69 - 34 x35 * x71 + 8 x35 * x75 + 46 x35 * x83 + 4 x35 * x84
   + 46 x35 * x87 + 90 x35 * x96 + 66 x35 * x97 + 16 x35 * x99
   - 54 x36 * x39 - 10 x36 * x41 - 16 x36 * x48 + 16 x36 * x51
   - 54 x36 * x53 - 70 x36 * x54 - 24 x36 * x57 - 38 x36 * x58
   - 74 x36 * x62 + 42 x36 * x70 + 78 x36 * x72 - 48 x36 * x88
   + 58 x36 * x90 - 74 x36 * x92 - 42 x36 * x99 + 36 x37 * x39
   - 96 x37 * x46 + 98 x37 * x54 + 18 x37 * x58 - 78 x37 * x61
   + 34 x37 * x63 + 38 x37 * x66 + 88 x37 * x73 + 66 x37 * x76
   + 34 x37 * x79 - 88 x37 * x81 + 36 x37 * x85 - 50 x37 * x86
   + 32 x37 * x89 - 28 x37 * x92 + 18 x37 * x97 - 78 x38 * x39
   - 52 x38 * x43 + 18 x38 * x44 - 64 x38 * x49 + 10 x38 * x52
   - 42 x38 * x54 + 88 x38 * x56 + 10 x38 * x63 - 92 x38 * x66
   - 90 x38 * x70 - 4 x38 * x71 - 84 x38 * x91 + 40 x38 * x96 + 39 x39 ^2
   + 48 x39 * x40 + 2 x39 * x45 - 46 x39 * x47 + 12 x39 * x51
   - 30 x39 * x54 + 64 x39 * x56 - 78 x39 * x60 - 16 x39 * x61
   - 22 x39 * x62 + 4 x39 * x77 - 36 x39 * x78 + 56 x39 * x85 + 6 x39 * x87
   + 30 x39 * x91 - 70 x39 * x96 + 50 x40 * x43 + 20 x40 * x45
   - 78 x40 * x53 + 94 x40 * x56 - 70 x40 * x57 - 2 x40 * x60
   + 20 x40 * x65 + 62 x40 * x69 + 26 x40 * x80 + 2 x40 * x84
   - 20 x40 * x88 + 88 x40 * x90 + 48 x40 * x96 - 16 x40 * x97
   - 82 x41 * x45 + 74 x41 * x46 + 20 x41 * x47 + 82 x41 * x56
   + 86 x41 * x57 + 76 x41 * x62 - 40 x41 * x71 + 16 x41 * x76
   + 72 x41 * x82 - 36 x41 * x91 + 20 x41 * x93 + 80 x41 * x96
   - 44 x41 * x99 + 88 x42 * x43 + 18 x42 * x45 - 46 x42 * x46
   - 12 x42 * x53 - 92 x42 * x60 + 58 x42 * x62 + 12 x42 * x68
   - 16 x42 * x71 + 16 x42 * x76 - 90 x42 * x80 + 22 x42 * x81
   + 72 x42 * x87 + 80 x42 * x88 - 60 x42 * x90 - 16 x42 * x96
   - 10 x42 * x97 - 2 x42 * x98 - 10 x43 * x50 + 64 x43 * x52
   - 10 x43 * x66 - 6 x43 * x67 + 66 x43 * x69 + 86 x43 * x76
   + 16 x43 * x82 - 88 x43 * x89 - 12 x43 * x97 - 26 x44 * x45
   - 34 x44 * x47 + 88 x44 * x52 + 38 x44 * x55 + 40 x44 * x58
   - 78 x44 * x62 + 62 x44 * x64 - 48 x44 * x67 + 18 x44 * x69
   - 6 x44 * x75 - 30 x44 * x77 - 18 x44 * x89 - 16 x45 * x52
   - 98 x45 * x53 - 2 x45 * x59 + 92 x45 * x62 - 68 x45 * x63
   + 98 x45 * x68 - 48 x45 * x70 + 46 x45 * x71 + 42 x45 * x72
   + 26 x45 * x73 - 28 x45 * x74 + 46 x45 * x93 + 4 x45 * x95
   + 30 x45 * x96 + 31 x46 ^2 + 86 x46 * x50 - 62 x46 * x56 - 6 x46 * x57
   + 64 x46 * x65 - 90 x46 * x73 - 46 x46 * x80 - 4 x46 * x81
   - 48 x46 * x83 + 34 x46 * x84 - 16 x46 * x89 - 12 x46 * x90
   - 60 x46 * x92 + 80 x46 * x95 - 62 x46 * x98 + 36 x47 ^2 + 10 x47 * x48
   - 88 x47 * x53 + 94 x47 * x56 + 76 x47 * x58 + 38 x47 * x59
   + 12 x47 * x61 + 60 x47 * x62 - 8 x47 * x63 + 86 x47 * x66
   + 50 x47 * x69 + 64 x47 * x83 + 26 x47 * x86 - 64 x47 * x89
   + 20 x47 * x96 + 24 x47 * x99 + 14 x48 * x53 - 38 x48 * x56
   + 96 x48 * x59 - 8 x48 * x61 - 48 x48 * x73 - 14 x48 * x76
   - 64 x48 * x79 + 2 x48 * x85 + 64 x48 * x94 - 20 x48 * x96
   + 34 x48 * x97 + 56 x48 * x98 + 26 x49 * x50 - 62 x49 * x51
   + 76 x49 * x60 + 64 x49 * x61 - 84 x49 * x62 - 84 x49 * x67
   + 12 x49 * x69 + 80 x49 * x70 + 80 x49 * x74 - 18 x49 * x76
   + 66 x49 * x77 + 16 x49 * x82 + 82 x49 * x85 + 82 x49 * x90
   + 96 x49 * x95 + 40 x49 * x99 - 32 x50 * x54 + 92 x50 * x56
   + 14 x50 * x58 + 60 x50 * x60 - 50 x50 * x66 + 6 x50 * x70
   - 34 x50 * x73 - 88 x50 * x74 + 76 x50 * x78 - 42 x50 * x82
   + 82 x50 * x87 + 50 x50 * x95 + 76 x50 * x96 + 90 x50 * x98
   + 42 x51 * x53 - 18 x51 * x56 - 26 x51 * x58 - 88 x51 * x61
   - 6 x51 * x67 - 98 x51 * x74 - 78 x51 * x76 + 10 x51 * x77
   - 98 x51 * x83 + 4 x51 * x84 - 42 x51 * x87 - 76 x51 * x90
   + 54 x51 * x96 + 68 x51 * x97 + 70 x51 * x99 + 24 x52 * x61
   + 18 x52 * x69 - 28 x52 * x71 - 4 x52 * x77 - 18 x52 * x79
   + 92 x52 * x85 - 4 x52 * x86 - 10 x52 * x94 + 68 x52 * x99 - 43 x53 ^2
   + 30 x53 * x56 + 24 x53 * x57 - 86 x53 * x61 - 56 x53 * x67
   - 98 x53 * x69 - 60 x53 * x70 - 42 x53 * x71 + 78 x53 * x76
   + 72 x53 * x79 + 82 x53 * x80 - 86 x53 * x83 + 72 x53 * x87
   + 68 x53 * x91 + 70 x53 * x97 + 46 x53 * x98 + 28 x53 * x99
   + 86 x54 * x58 + 38 x54 * x64 + 94 x54 * x65 + 46 x54 * x66
   - 92 x54 * x68 + 50 x54 * x77 + 38 x54 * x79 - 98 x54 * x83
   + 20 x54 * x90 - 78 x54 * x91 + 44 x54 * x95 + 12 x54 * x98
   + 56 x55 * x57 + 74 x55 * x59 - 96 x55 * x65 + 68 x55 * x69
   - 12 x55 * x77 + 70 x55 * x79 - 96 x55 * x82 - 90 x55 * x87
   - 6 x55 * x90 - 68 x56 * x61 + 90 x56 * x63 - 24 x56 * x65
   - 82 x56 * x75 + 84 x56 * x87 - 52 x56 * x88 - 56 x56 * x90
   - 28 x56 * x94 + 76 x57 * x60 + 18 x57 * x61 + 78 x57 * x66
   - 26 x57 * x71 + 58 x57 * x72 - 72 x57 * x83 + 62 x57 * x86
   + 40 x57 * x87 - 76 x57 * x89 - 38 x57 * x91 - 66 x57 * x94
   - 22 x57 * x96 + 22 x58 ^2 + 60 x58 * x69 + 86 x58 * x78 - 94 x58 * x83
   - 98 x58 * x85 - 94 x58 * x92 - 94 x58 * x98 + 80 x58 * x99
   + 38 x59 * x71 + 70 x59 * x76 - 48 x59 * x78 + 10 x59 * x79
   + 48 x59 * x83 + 6 x59 * x84 - 60 x59 * x90 - 22 x59 * x92
   - 96 x59 * x93 + 82 x60 * x61 - 88 x60 * x66 - 92 x60 * x70
   - 90 x60 * x71 + 18 x60 * x74 + 52 x60 * x81 - 44 x60 * x82
   - 94 x60 * x88 + 40 x60 * x91 - 66 x60 * x92 - 84 x60 * x93
   + 32 x60 * x94 + 38 x61 ^2 + 76 x61 * x67 - 40 x61 * x70 - 28 x61 * x79
   + 26 x61 * x80 + 4 x61 * x85 + 46 x61 * x91 - 4 x62 ^2 - 80 x62 * x70
   - 20 x62 * x71 + 64 x62 * x82 - 92 x62 * x88 + 50 x62 * x90
   - 22 x62 * x95 - 70 x62 * x96 - 72 x62 * x97 - 16 x63 * x69
   - 72 x63 * x74 - 24 x63 * x80 - 66 x63 * x85 - 74 x63 * x88
   - 24 x63 * x89 - 76 x63 * x91 + 22 x63 * x93 + 22 x63 * x98
   - 36 x64 * x67 + 90 x64 * x70 + 28 x64 * x72 - 60 x64 * x80
   - 38 x64 * x87 - 78 x64 * x88 - 2 x64 * x89 + 4 x64 * x90 + 36 x64 * x91
   - 30 x64 * x96 + 46 x65 * x66 - 6 x65 * x67 - 36 x65 * x69
   + 62 x65 * x73 + 58 x65 * x75 - 78 x65 * x76 + 46 x65 * x79
   - 76 x65 * x82 - 88 x65 * x84 + 54 x65 * x94 - 4 x65 * x99 - 25 x66 ^2
   + 64 x66 * x70 - 54 x66 * x71 + 56 x66 * x72 - 76 x66 * x93
   - 70 x66 * x96 + 26 x66 * x97 + 16 x66 * x98 - 3 x67 ^2 + 38 x67 * x84
   - 64 x67 * x91 + 6 x67 * x94 + 48 x67 * x99 - 44 x68 * x72
   - 48 x68 * x83 + 22 x68 * x85 - 68 x68 * x90 - 8 x68 * x92
   + 30 x69 * x70 + 24 x69 * x72 - 94 x69 * x80 + 66 x69 * x82
   - 16 x69 * x90 + 22 x69 * x96 - 16 x70 * x71 + 68 x70 * x72
   - 38 x70 * x73 + 8 x70 * x78 + 44 x70 * x81 + 80 x70 * x86
   + 14 x70 * x92 + 11 x71 ^2 - 64 x71 * x76 - 88 x71 * x78 + 78 x71 * x81
   + 16 x71 * x83 - 38 x71 * x85 + 70 x71 * x88 - 26 x71 * x89
   - 4 x71 * x96 + 44 x72 ^2 - 88 x72 * x76 + 78 x72 * x78 + 50 x72 * x79
   - 80 x72 * x80 + 8 x72 * x82 - 20 x72 * x84 - 72 x72 * x90
   + 90 x72 * x92 + 64 x72 * x97 - 16 x73 * x76 + 56 x73 * x80
   - 68 x73 * x96 + 68 x73 * x97 - 48 x73 * x99 - 38 x74 * x84
   + 42 x74 * x86 + 14 x74 * x89 + 22 x74 * x97 - 72 x75 * x83
   - 14 x75 * x88 + 24 x75 * x90 + 42 x75 * x94 - 21 x76 ^2 - 60 x76 * x79
   - 42 x76 * x83 - 22 x76 * x84 - 4 x76 * x85 + 68 x76 * x86
   + 48 x76 * x89 + 66 x76 * x94 + 24 x76 * x98 - 56 x77 * x78
   + 14 x77 * x80 - 82 x77 * x82 + 30 x77 * x83 + 16 x77 * x84
   + 54 x77 * x86 + 36 x77 * x94 + 98 x77 * x95 - 16 x77 * x97
   + 56 x78 * x85 - 70 x78 * x86 + 26 x78 * x92 + 4 x78 * x98
   - 52 x78 * x99 - 72 x79 * x90 + 44 x79 * x97 + 92 x80 * x81
   - 66 x80 * x82 + 16 x80 * x86 + 8 x80 * x87 - 2 x80 * x89 - 42 x80 * x92
   + 74 x80 * x96 - 14 x80 * x99 + 18 x81 ^2 - 32 x81 * x83 - 94 x81 * x94
   - 22 x82 * x83 - 44 x82 * x96 - 48 x82 * x98 - 92 x82 * x99
   - 14 x83 * x85 - 82 x83 * x91 + 36 x83 * x95 + 34 x83 * x99 - 43 x84 ^2
   + 84 x84 * x85 + 58 x84 * x87 + 40 x84 * x88 - 8 x84 * x99
   - 66 x85 * x91 + 18 x85 * x94 - 14 x85 * x98 - 44 x86 * x88
   + 12 x86 * x89 + 52 x86 * x91 + 62 x86 * x93 - 14 x86 * x98
   - 96 x87 * x95 + 8 x88 * x92 - 50 x88 * x93 + 64 x89 * x90
   + 76 x89 * x97 + 34 x90 * x91 + 42 x90 * x92 - 72 x90 * x96
   - 64 x90 * x98 + 21 x91 ^2 - 50 x91 * x97 - 12 x92 * x95 + 2 x92 * x99
   + 22 x93 * x96 - 68 x93 * x97 - 3 x94 ^2 + 58 x95 * x97 - 37 x96 ^2
   - 72 x96 * x99 - 49 x97 ^2 + 28 x99 ^2 ] / 2 
Subject To
Bounds
 x0 <= 1
 x1 <= 1
 x2 <= 1
 x3 <= 1
 x4 <= 1
 x5 <= 1
 x6 <= 1
 x7 <= 1
 x8 <= 1
 x9 <= 1
 x10 <= 1
 x11 <= 1
 x12 <= 1
 x13 <= 1
 x14 <= 1
 x15 <= 1
 x16 <= 1
 x17 <= 1
 x18 <= 1
 x19 <= 1
 x20 <= 1
 x21 <= 1
 x22 <= 1
 x23 <= 1
 x24 <= 1
 x25 <= 1
 x26 <= 1
 x27 <= 1
 x28 <= 1
 x29 <= 1
 x30 <= 1
 x31 <= 1
 x32 <= 1
 x33 <= 1
 x34 <= 1
 x35 <= 1
 x36 <= 1
 x37 <= 1
 x38 <= 1
 x39 <= 1
 x40 <= 1
 x41 <= 1
 x42 <= 1
 x43 <= 1
 x44 <= 1
 x45 <= 1
 x46 <= 1
 x47 <= 1
 x48 <= 1
 x49 <= 1
 x50 <= 1
 x51 <= 1
 x52 <= 1
 x53 <= 1
 x54 <= 1
 x55 <= 1
 x56 <= 1
 x57 <= 1
 x58 <= 1
 x59 <= 1
 x60 <= 1
 x61 <= 1
 x62 <= 1
 x63 <= 1
 x64 <= 1
 x65 <= 1
 x66 <= 1
 x67 <= 1
 x68 <= 1
 x69 <= 1
 x70 <= 1
 x71 <= 1
 x72 <= 1
 x73 <= 1
 x74 <= 1
 x75 <= 1
 x76 <= 1
 x77 <= 1
 x78 <= 1
 x79 <= 1
 x80 <= 1
 x81 <= 1
 x82 <= 1
 x83 <= 1
 x84 <= 1
 x85 <= 1
 x86 <= 1
 x87 <= 1
 x88 <= 1
 x89 <= 1
 x90 <= 1
 x91 <= 1
 x92 <= 1
 x93 <= 1
 x94 <= 1
 x95 <= 1
 x96 <= 1
 x97 <= 1
 x98 <= 1
 x99 <= 1
End
